(set-logic CHC_LIA)

(synth-fun state ((x_0 Bool) (x_1 Bool) (x_2 Bool) (x_3 Bool) (x_4 Bool) (x_5 Int) (x_6 Int) (x_7 Int) (x_8 Int) (x_9 Int) (x_10 Int) (x_11 Int)) Bool)

(constraint (forall ((.s.1 Bool) (.s.0 Bool) (.s.2 Bool) (.s.3 Bool) (.s.4 Bool) (main.n1 Int) (main.i0 Int) (main.i1 Int) (main.j0 Int) (main.n0 Int) (main.k Int) (main.j1 Int)) (=> (and (not .s.1) .s.0 (not .s.2) (not .s.3) (not .s.4)) (state .s.1 .s.0 .s.2 .s.3 .s.4 main.n1 main.i0 main.i1 main.j0 main.n0 main.k main.j1))))
(constraint (forall ((.s.1 Bool) (.s.0 Bool) (.s.2 Bool) (.s.3 Bool) (.s.4 Bool) (main.n1 Int) (main.i0 Int) (main.i1 Int) (main.j0 Int) (main.n0 Int) (main.k Int) (main.j1 Int) (main.n1.next Int) (main.i0.next Int) (main.i1.next Int) (main.j0.next Int) (main.n0.next Int) (main.k.next Int) (main.j1.next Int) (.s.4.next Bool) (.s.3.next Bool) (.s.2.next Bool) (.s.1.next Bool) (.s.0.next Bool)) (let ((a!1 (and .s.3 (and .s.2 (and (not .s.1) (not .s.0))))) (a!2 (and (not .s.3.next) (and (not .s.2.next) (and (not .s.1.next) (not .s.0.next))))) (a!4 (and .s.4 (and .s.3 (and (not .s.2) (and .s.1 .s.0))))) (a!5 (and (= main.n1 main.n1.next) (= main.i0 main.i0.next) (= main.i1 main.i1.next) (= main.j0 main.j0.next) (= main.n0 main.n0.next) (= main.k main.k.next) (= main.j1 main.j1.next) .s.4.next (and .s.3.next (and (not .s.2.next) (and .s.1.next .s.0.next))))) (a!6 (and .s.3 (and (not .s.2) (and .s.1 (not .s.0))))) (a!7 (and (not .s.3.next) (and .s.2.next (and (not .s.1.next) .s.0.next)))) (a!8 (and (and (and (not .s.1) .s.0) (not .s.2)) .s.3)) (a!9 (and .s.3.next (and (not .s.2.next) (and .s.1.next (not .s.0.next))))) (a!10 (= (+ main.k (* (- 1) main.k.next)) 1)) (a!11 (and .s.3 (and (not .s.2) (and (not .s.1) (not .s.0))))) (a!12 (= (+ main.j0 (* (- 1) main.j0.next)) (- 1))) (a!13 (and .s.3.next (and (not .s.2.next) (and (not .s.1.next) .s.0.next)))) (a!14 (and .s.4 (and (not .s.3) (and .s.2 (and .s.1 .s.0))))) (a!15 (and .s.3.next (and (not .s.2.next) (and (not .s.1.next) (not .s.0.next))))) (a!16 (and (not .s.3) (and .s.2 (and .s.1 (not .s.0))))) (a!18 (and (= main.n1 main.n1.next) (= main.i0 main.i0.next) (= main.i1 main.i1.next) (= main.j0 main.j0.next) (= main.n0 main.n0.next) (= main.k main.k.next) (= main.j1 main.j1.next) .s.4.next (and (not .s.3.next) (and .s.2.next (and .s.1.next .s.0.next))))) (a!20 (and (not .s.3) (and (and (not .s.1) .s.0) .s.2))) (a!22 (and (not .s.3.next) (and .s.2.next (and .s.1.next (not .s.0.next))))) (a!23 (and .s.3.next (and .s.2.next (and (not .s.1.next) (not .s.0.next))))) (a!25 (and (not .s.3) (and .s.2 (and (not .s.1) (not .s.0))))) (a!26 (and .s.4 (and (not .s.3) (and (not .s.2) (and .s.1 .s.0))))) (a!27 (and (= main.n1 main.n1.next) (= main.i0 main.i0.next) (= main.i1 main.i1.next) (= main.j0 main.j0.next) (= main.n0 main.n0.next) (= main.k main.k.next) (= main.j1 main.j1.next) .s.4.next (and (not .s.3.next) (and (not .s.2.next) (and .s.1.next .s.0.next))))) (a!28 (and (not .s.3) (and (not .s.2) (and .s.1 (not .s.0))))) (a!29 (and (not .s.4.next) .s.3.next (and .s.2.next (and (not .s.1.next) .s.0.next)))) (a!30 (and (and (and (not .s.1) .s.0) (not .s.2)) (not .s.3))) (a!31 (and (not .s.3.next) (and (not .s.2.next) (and .s.1.next (not .s.0.next))))) (a!32 (and (not .s.3) (and (not .s.2) (and (not .s.1) (not .s.0))))) (a!33 (= (+ main.j1 (* (- 1) main.j1.next)) (- 1))) (a!35 (not (and (not .s.4) .s.3 (and .s.2 (and .s.1 .s.0))))) (a!36 (and (not .s.4) .s.3 (and .s.2 (and .s.1 (not .s.0))))) (a!40 (and (not .s.4) .s.3 (and (and (not .s.1) .s.0) .s.2))) (a!41 (and (not .s.3.next) (and .s.2.next (and (not .s.1.next) (not .s.0.next))))) (a!44 (and (= main.n1 main.n1.next) (= main.i0 main.i0.next) (= main.i1 main.i1.next) (= main.j0 main.j0.next) (= main.n0 main.n0.next) (= main.k main.k.next) (= main.j1 main.j1.next) (not .s.4.next) .s.3.next (and .s.2.next (and .s.1.next (not .s.0.next))))) (a!46 (and (not .s.4) (and .s.3 (and (not .s.2) (and .s.1 .s.0))))) (a!47 (and (not .s.4.next) (and (not .s.3.next) (and .s.2.next (and .s.1.next .s.0.next))))) (a!48 (= (+ main.k (* (- 1) main.k.next)) (- 1))) (a!51 (= (+ main.i1 (* (- 1) main.i1.next)) (- 1))) (a!53 (= (+ main.i0 (* (- 1) main.i0.next)) 1)) (a!55 (and (not .s.4) (and (not .s.3) (and .s.2 (and .s.1 .s.0))))) (a!61 (and (not .s.4) (and (not .s.3) (and (not .s.2) (and .s.1 .s.0))))) (a!62 (= (+ main.i0 (* (- 1) main.i0.next)) (- 1))) (a!64 (and (= main.n1 main.n1.next) (= main.i0 main.i0.next) (= main.i1 main.i1.next) (= main.j0 main.j0.next) (= main.n0 main.n0.next) (= main.k main.k.next) (= main.j1 main.j1.next) (not .s.4.next) (and (not .s.3.next) (and (not .s.2.next) (and .s.1.next .s.0.next)))))) (let ((a!3 (and (= main.n1 main.n1.next) (= main.i0 main.i0.next) (= main.i1 main.i1.next) (= main.j0 main.j0.next) (= main.n0 main.n0.next) (= main.k main.k.next) (= main.j1 main.j1.next) (not .s.4.next) a!2)) (a!17 (not (and (and .s.4 a!16) (not (<= main.k 0))))) (a!19 (or a!5 (not (and (and .s.4 a!16) (<= main.k 0))))) (a!21 (not (and (and .s.4 a!20) (not (<= main.n0 main.j0))))) (a!24 (or (not (and (and .s.4 a!20) (<= main.n0 main.j0))) (and (= main.n1 main.n1.next) (= main.i0 main.i0.next) (= main.i1 main.i1.next) (= main.j0 main.j0.next) (= main.n0 main.n0.next) (= main.k main.k.next) (= main.j1 main.j1.next) .s.4.next a!23))) (a!34 (and (= main.n1 main.n1.next) (= main.i0 main.i0.next) (= main.i1 main.i1.next) (= main.j0 main.j0.next) (= main.n0 main.n0.next) (= main.k main.k.next) a!33 .s.4.next (not .s.3.next) (and (not .s.2.next) (and (not .s.1.next) .s.0.next)))) (a!37 (not (and (not (<= main.k 0)) a!36))) (a!39 (or a!27 (not (and (<= main.k 0) a!36)))) (a!42 (or (not (and a!40 (<= main.n1 main.j1))) (and (= main.n1 main.n1.next) (= main.i0 main.i0.next) (= main.i1 main.i1.next) (= main.j0 main.j0.next) (= main.n0 main.n0.next) (= main.k main.k.next) (= main.j1 main.j1.next) .s.4.next a!41))) (a!43 (not (and a!40 (not (<= main.n1 main.j1))))) (a!45 (or (not (and (not .s.4) a!1)) (and (= main.n1 main.n1.next) (= main.i0 main.i0.next) (= main.i1 main.i1.next) (= main.j0 main.j0.next) (= main.n0 main.n0.next) (= main.k main.k.next) a!29 (= main.j1.next 0)))) (a!49 (and (= main.n1 main.n1.next) (= main.i0 main.i0.next) (= main.i1 main.i1.next) (= main.j0 main.j0.next) (= main.n0 main.n0.next) (= main.j1 main.j1.next) (not .s.4.next) (and .s.3.next (and (not .s.2.next) (and .s.1.next .s.0.next))) a!48)) (a!52 (or (not (and (not .s.4) a!8)) (and (= main.n1 main.n1.next) (= main.i0 main.i0.next) (= main.j0 main.j0.next) (= main.n0 main.n0.next) (= main.k main.k.next) (= main.j1 main.j1.next) a!51 (not .s.4.next) a!9))) (a!54 (or (not (and (not .s.4) a!11)) (and (= main.n1 main.n1.next) (= main.i1 main.i1.next) (= main.j0 main.j0.next) (= main.n0 main.n0.next) (= main.k main.k.next) (= main.j1 main.j1.next) a!53 (not .s.4.next) a!13))) (a!56 (not (and a!55 (not (<= main.n1 main.i1))))) (a!57 (or (not (and a!55 (<= main.n1 main.i1))) (and (= main.n1 main.n1.next) (= main.i0 main.i0.next) (= main.i1 main.i1.next) (= main.j0 main.j0.next) (= main.n0 main.n0.next) (= main.k main.k.next) (= main.j1 main.j1.next) (not .s.4.next) a!23))) (a!58 (or (not (and (not .s.4) a!16)) (and (= main.n1 main.n1.next) (= main.i0 main.i0.next) (= main.j0 main.j0.next) (= main.n0 main.n0.next) (= main.k main.k.next) (= main.j1 main.j1.next) a!47 (= main.i1.next 0)))) (a!59 (or (not (and (not .s.4) a!20)) (and (= main.n1 main.n1.next) (= main.i0 main.i0.next) (= main.i1 main.i1.next) (= main.j0 main.j0.next) (= main.n0 main.n0.next) (= main.k main.k.next) (= main.j1 main.j1.next) (and (not .s.4.next) a!31)))) (a!60 (or (not (and (not .s.4) a!25)) (and (= main.n1 main.n1.next) (= main.i0 main.i0.next) (= main.i1 main.i1.next) (= main.j0 main.j0.next) (= main.n0 main.n0.next) (= main.j1 main.j1.next) a!48 (not .s.4.next) a!7))) (a!63 (not (and (and (not .s.4) a!28) (not (<= main.n0 main.i0))))) (a!65 (not (and (and (not .s.4) a!28) (<= main.n0 main.i0)))) (a!66 (or (not (and a!30 (not .s.4))) (and (= main.n1 main.n1.next) (= main.i1 main.i1.next) (= main.j0 main.j0.next) (= main.n0 main.n0.next) (= main.j1 main.j1.next) (= main.i0.next 0) (and (not .s.4.next) a!31) (= main.k.next 0))))) (let ((a!38 (or a!37 (and (= main.n1 main.n1.next) (= main.i0 main.i0.next) (= main.i1 main.i1.next) (= main.j0 main.j0.next) (= main.n0 main.n0.next) (= main.k main.k.next) (= main.j1 main.j1.next) (not .s.4.next) .s.3.next (and .s.2.next (and .s.1.next .s.0.next))))) (a!50 (or (not (and (not .s.4) a!6)) a!49)) (a!67 (or a!3 (not (and (not .s.4) a!32))))) (let ((a!68 (and (state .s.1 .s.0 .s.2 .s.3 .s.4 main.n1 main.i0 main.i1 main.j0 main.n0 main.k main.j1) (or (not (and .s.4 a!1)) a!3) (or (not a!4) a!5) (or (not (and .s.4 a!6)) (and (= main.n1 main.n1.next) (= main.i0 main.i0.next) (= main.i1 main.i1.next) (= main.j0 main.j0.next) (= main.n0 main.n0.next) (= main.k main.k.next) (= main.j1 main.j1.next) (and .s.4.next a!7))) (or (not (and .s.4 a!8)) (and (= main.n1 main.n1.next) (= main.i0 main.i0.next) (= main.i1 main.i1.next) (= main.j0 main.j0.next) (= main.n0 main.n0.next) (= main.j1 main.j1.next) .s.4.next a!9 a!10)) (or (not (and .s.4 a!11)) (and (= main.n1 main.n1.next) (= main.i0 main.i0.next) (= main.i1 main.i1.next) (= main.n0 main.n0.next) (= main.k main.k.next) (= main.j1 main.j1.next) a!12 .s.4.next a!13)) (or (not a!14) (and (= main.n1 main.n1.next) (= main.i0 main.i0.next) (= main.i1 main.i1.next) (= main.j0 main.j0.next) (= main.n0 main.n0.next) (= main.k main.k.next) (= main.j1 main.j1.next) .s.4.next a!15)) (or a!17 a!18) a!19 (or a!21 (and (= main.n1 main.n1.next) (= main.i0 main.i0.next) (= main.i1 main.i1.next) (= main.j0 main.j0.next) (= main.n0 main.n0.next) (= main.k main.k.next) (= main.j1 main.j1.next) .s.4.next a!22)) a!24 (or (not (and .s.4 a!25)) (and (= main.n1 main.n1.next) (= main.i0 main.i0.next) (= main.i1 main.i1.next) (= main.n0 main.n0.next) (= main.k main.k.next) (= main.j1 main.j1.next) (and .s.4.next a!7) (= main.j0.next 0))) (or (not a!26) a!27) (or (not (and .s.4 a!28)) (and (= main.n1 main.n1.next) (= main.i0 main.i0.next) (= main.i1 main.i1.next) (= main.j0 main.j0.next) (= main.n0 main.n0.next) (= main.k main.k.next) (= main.j1 main.j1.next) a!29)) (or (not (and a!30 .s.4)) (and (= main.n1 main.n1.next) (= main.i0 main.i0.next) (= main.i1 main.i1.next) (= main.j0 main.j0.next) (= main.n0 main.n0.next) (= main.j1 main.j1.next) a!10 .s.4.next a!31)) (or (not (and .s.4 a!32)) a!34) (or a!35 (and (= main.n1 main.n1.next) (= main.i0 main.i0.next) (= main.i1 main.i1.next) (= main.j0 main.j0.next) (= main.n0 main.n0.next) (= main.k main.k.next) (= main.j1 main.j1.next) .s.4.next a!2)) a!38 a!39 a!42 (or a!43 a!44) a!45 (or (not a!46) (and (= main.n1 main.n1.next) (= main.i0 main.i0.next) (= main.i1 main.i1.next) (= main.j0 main.j0.next) (= main.n0 main.n0.next) (= main.k main.k.next) (= main.j1 main.j1.next) a!47)) a!50 a!52 a!54 (or a!56 (and (= main.n1 main.n1.next) (= main.i0 main.i0.next) (= main.i1 main.i1.next) (= main.j0 main.j0.next) (= main.n0 main.n0.next) (= main.k main.k.next) (= main.j1 main.j1.next) (not .s.4.next) a!15)) a!57 a!58 a!59 a!60 (or (not a!61) (and (= main.n1 main.n1.next) (= main.i1 main.i1.next) (= main.j0 main.j0.next) (= main.n0 main.n0.next) (= main.k main.k.next) (= main.j1 main.j1.next) a!62 (not .s.4.next) a!41)) (or a!63 a!64) (or a!65 (and (= main.n1 main.n1.next) (= main.i0 main.i0.next) (= main.i1 main.i1.next) (= main.j0 main.j0.next) (= main.n0 main.n0.next) (= main.k main.k.next) (= main.j1 main.j1.next) (not .s.4.next) a!22)) a!66 a!67))) (=> a!68 (state .s.1.next .s.0.next .s.2.next .s.3.next .s.4.next main.n1.next main.i0.next main.i1.next main.j0.next main.n0.next main.k.next main.j1.next))))))))
(constraint (forall ((.s.1 Bool) (.s.0 Bool) (.s.2 Bool) (.s.3 Bool) (.s.4 Bool) (main.n1 Int) (main.i0 Int) (main.i1 Int) (main.j0 Int) (main.n0 Int) (main.k Int) (main.j1 Int)) (let ((a!1 (not (and .s.4 .s.3 (and (not .s.2) .s.1 .s.0)))) (a!2 (not (and .s.4 (not .s.3) (and (not .s.2) .s.1 .s.0))))) (=> (and (state .s.1 .s.0 .s.2 .s.3 .s.4 main.n1 main.i0 main.i1 main.j0 main.n0 main.k main.j1) (not (and a!1 a!2))) false))))

(check-synth)

